p tw 20 128
0 1
0 2
0 3
0 5
0 8
0 6
0 19
0 9
0 15
1 2
1 4
1 16
1 3
1 9
1 14
1 17
1 8
1 18
1 10
1 7
1 6
1 11
2 7
2 8
2 14
2 12
2 15
2 4
2 11
2 10
2 19
2 6
2 3
3 4
3 5
3 8
3 9
3 16
3 17
3 6
3 14
3 19
3 10
3 7
3 12
3 18
4 5
4 6
4 7
4 16
4 11
4 10
4 9
4 8
4 13
4 12
4 15
4 19
5 8
5 7
5 13
5 6
5 16
5 11
5 17
5 18
6 7
6 9
6 11
6 18
6 13
6 12
6 19
6 10
6 16
7 8
7 12
7 16
7 13
7 9
7 17
7 10
7 14
8 9
8 10
8 14
8 13
8 18
8 15
8 16
8 11
8 19
9 10
9 16
9 18
9 14
9 13
9 17
9 15
10 13
10 15
10 18
10 14
10 16
10 19
11 12
11 13
11 18
11 17
11 16
12 13
12 15
12 16
12 19
12 18
13 15
13 18
13 16
14 17
14 15
14 19
14 18
15 17
15 16
15 18
15 19
16 17
17 18
